DATASET = "thpack3";
INSTANCE = "024";

WIDTH = 233;
HEIGHT = 220;
LENGTH = 587;

NO_OF_SHAPES = 8;
size = [|
  113,80,29 |
  98,65,62 |
  60,59,46 |
  100,97,64 |
  99,88,23 |
  106,49,33 |
  78,54,30 |
  71,68,41 |
|];

verticality = [|
  0,0,1 |
  1,1,1 |
  1,1,1 |
  1,1,1 |
  0,0,1 |
  0,1,1 |
  0,1,1 |
  1,1,1 |
|];

box_count = [
  15,
  11,
  9,
  16,
  12,
  15,
  20,
  14,
];
